100
128
40
32
59
56
4
40
34
58
64
2
7
9
30
1
59
33
33
64
26
27
27
47
53
31
44
33
13
27
18
10
20
6
12
31
10
46
38
32
54
35
11
31
27
7
17
13
35
12
25
33
47
13
45
22
19
16
51
45
32
25
17
64
38
20
16
20
47
25
47
1
60
18
55
18
39
16
62
19
30
29
28
33
18
43
41
19
55
43
37
36
48
17
1
46
24
2
50
22
9
56